NAME : A039-20f.5903.tour
COMMENT : Cost = 0_5903
COMMENT : Found by LKH [Keld Helsgaun] Tue Sep 12 09:35:12 2017
TYPE : TOUR
DIMENSION : 58
TOUR_SECTION
1
15
57
5
7
55
19
14
13
48
25
22
51
34
21
45
38
11
56
6
50
31
32
33
40
16
10
43
8
36
39
18
2
53
12
54
29
28
37
42
20
46
4
17
52
30
44
24
35
47
23
26
27
49
9
41
3
58
-1
EOF
